
Gurobi 6.5.0 (linux64) logging started Fri May 27 17:57:46 2016


Gurobi 6.5.0 (linux64) logging started Fri May 27 18:04:14 2016


Gurobi 6.5.0 (linux64) logging started Fri May 27 18:11:06 2016


Gurobi 6.5.0 (linux64) logging started Fri May 27 18:12:24 2016


Gurobi 6.5.0 (linux64) logging started Fri May 27 18:18:46 2016


Gurobi 6.5.0 (linux64) logging started Fri May 27 18:19:34 2016


Gurobi 6.5.0 (linux64) logging started Fri May 27 18:20:50 2016


Gurobi 6.5.0 (linux64) logging started Fri May 27 18:23:44 2016


Gurobi 6.5.0 (linux64) logging started Sat May 28 11:45:50 2016


Gurobi 6.5.0 (linux64) logging started Sat May 28 11:47:04 2016


Gurobi 6.5.0 (linux64) logging started Sat May 28 12:03:32 2016


Gurobi 6.5.1 (linux64) logging started Sat May 28 21:05:58 2016


Gurobi 6.5.1 (linux64) logging started Sat May 28 22:07:04 2016

